
===== New CPLEX run =====
Instance: /home/yorig/tuner/mpils-tests/instances/miplib/easy/mas74.mps
Config: /scratch/yorig/mpils-results-grid-ticks-10000-divide/easy/16proc/seed-4/5_mas74_seed-4_20260429_043455/expansion/config_param_CPXPARAM_Preprocessing_Relax_0_iter_5.prm
========================

Selected objective sense:  MINIMIZE
Selected objective  name:  obj
Selected RHS        name:  rhs
Selected bound      name:  bnd
Version identifier: 22.1.2.0 | 2024-11-26 | 0edbb82fd
CPXPARAM_Simplex_DGradient                       1
CPXPARAM_Threads                                 8
CPXPARAM_Parallel                                1
CPXPARAM_MIP_Cuts_Cliques                        1
CPXPARAM_MIP_Cuts_Covers                         -1
CPXPARAM_MIP_OrderType                           2
CPXPARAM_Preprocessing_Relax                     0
CPXPARAM_MIP_Strategy_PresolveNode               -1
CPXPARAM_MIP_Cuts_FlowCovers                     -1
CPXPARAM_MIP_Cuts_Implied                        -1
CPXPARAM_MIP_Cuts_GUBCovers                      -1
CPXPARAM_MIP_Limits_GomoryCand                   10
CPXPARAM_MIP_Cuts_Gomory                         2
CPXPARAM_MIP_Cuts_PathCut                        2
CPXPARAM_MIP_Cuts_MIRCut                         -1
CPXPARAM_MIP_Cuts_Disjunctive                    2
CPXPARAM_Emphasis_MIP                            3
CPXPARAM_MIP_Strategy_RINSHeur                   -1
CPXPARAM_DetTimeLimit                            10000
CPXPARAM_MIP_Limits_CutsFactor                   1
Generated priority order by increasing bound range.
Found incumbent of value 157344.610330 after 0.00 sec. (0.02 ticks)
Tried aggregator 1 time.
MIP Presolve eliminated 0 rows and 3 columns.
Reduced MIP has 13 rows, 148 columns, and 1682 nonzeros.
Reduced MIP has 145 binaries, 2 generals, 0 SOSs, and 0 indicators.
Presolve time = 0.00 sec. (0.84 ticks)
Probing time = 0.00 sec. (0.09 ticks)
Tried aggregator 1 time.
Detecting symmetries...
Reduced MIP has 13 rows, 148 columns, and 1682 nonzeros.
Reduced MIP has 145 binaries, 2 generals, 0 SOSs, and 0 indicators.
Presolve time = 0.00 sec. (0.79 ticks)
Probing time = 0.00 sec. (0.09 ticks)
MIP emphasis: best bound.
MIP search method: dynamic search.
Parallel mode: deterministic, using up to 8 threads.
Root relaxation solution time = 0.11 sec. (0.49 ticks)

        Nodes                                         Cuts/
   Node  Left     Objective  IInf  Best Integer    Best Bound    ItCnt     Gap

*     0+    0                       157344.6103        0.0000           100.00%
*     0+    0                        51840.4943        0.0000           100.00%
      0     0    10482.7953    12    51840.4943    10482.7953       36   79.78%
*     0+    0                        19197.4680    10482.7953            45.39%
*     0+    0                        15240.3317    10482.7953            31.22%
*     0+    0                        14372.8713    10482.7953            27.07%
Detecting symmetries...
      0     2    10482.7953    12    14372.8713    10513.0180       36   26.86%
Elapsed time = 0.57 sec. (6.47 ticks, tree = 0.02 MB, solutions = 5)
*     5+    1                        13279.7434    10526.8584            20.73%
*   174+  108                        12942.4387    10626.7050            17.89%
*   206+  108                        12379.4387    10628.1356            14.15%

Performing restart 1

Repeating presolve.
Tried aggregator 1 time.
MIP Presolve eliminated 0 rows and 34 columns.
Reduced MIP has 13 rows, 114 columns, and 1243 nonzeros.
Reduced MIP has 111 binaries, 2 generals, 0 SOSs, and 0 indicators.
Presolve time = 0.00 sec. (0.44 ticks)
Tried aggregator 1 time.
Reduced MIP has 13 rows, 114 columns, and 1243 nonzeros.
Reduced MIP has 111 binaries, 2 generals, 0 SOSs, and 0 indicators.
Presolve time = 0.00 sec. (0.57 ticks)
Represolve time = 0.00 sec. (1.36 ticks)
*  4067+  577                        12039.4680    10749.7092            10.71%
*  4391+  828                        11857.3713    10750.8755             9.33%
  19285 15359    11069.7901    11    11857.3713    11019.4759   121212    7.07%
* 31910+27339                        11801.1857    11082.9245             6.09%

Performing restart 2

Repeating presolve.
Tried aggregator 1 time.
MIP Presolve eliminated 0 rows and 17 columns.
Reduced MIP has 13 rows, 97 columns, and 1030 nonzeros.
Reduced MIP has 95 binaries, 1 generals, 0 SOSs, and 0 indicators.
Presolve time = 0.00 sec. (0.35 ticks)
Tried aggregator 1 time.
Reduced MIP has 13 rows, 97 columns, and 1030 nonzeros.
Reduced MIP has 95 binaries, 1 generals, 0 SOSs, and 0 indicators.
Presolve time = 0.00 sec. (0.46 ticks)
Represolve time = 0.01 sec. (1.41 ticks)
  39086  2317    10957.6377    12    11801.1857    11103.2338   252955    5.91%
  65756 27147    11406.6342    11    11801.1857    11109.6817   422867    5.86%
  94400 52996    11283.1536    12    11801.1857    11193.2631   604568    5.15%
 124286 77400    11696.3979    10    11801.1857    11247.0250   782061    4.70%
 155360 102614    11358.6014    12    11801.1857    11287.6434   969445    4.35%
 187327 127831    11392.0663    12    11801.1857    11319.9362  1160618    4.08%
 220020 152708    11442.1364    10    11801.1857    11347.4575  1354785    3.84%
 253357 178720    11378.2459    10    11801.1857    11370.8631  1561112    3.65%
 392323 272200    11487.9610    12    11801.1857    11444.0387  2354442    3.03%
Elapsed time = 21.02 sec. (3105.96 ticks, tree = 60.48 MB, solutions = 17)
 537338 358834    11632.8624    11    11801.1857    11498.4625  3172118    2.57%
 691405 436902    11610.4128    11    11801.1857    11543.4611  4029654    2.18%
 859209 504396        cutoff          11801.1857    11583.8593  4936788    1.84%
 1033651 550723    11644.1183    10    11801.1857    11619.0279  5824776    1.54%
 1215156 570012    11755.3934    10    11801.1857    11650.8286  6714454    1.27%
 1400954 556858    11779.5791    11    11801.1857    11679.6391  7528804    1.03%
 1604891 498208        cutoff          11801.1857    11708.0613  8333557    0.79%

Clique cuts applied:  0
Flow path cuts applied:  0
Gomory fractional cuts applied:  0
Disjunctive cuts applied:  0
Cone linearizations applied:  0

Root node processing (before b&c):
  Real time             =    0.47 sec. (6.43 ticks)
Parallel b&c, 8 threads:
  Real time             =   73.98 sec. (9995.70 ticks)
  Sync time (average)   =   49.61 sec.
  Wait time (average)   =    1.54 sec.
                          ------------
Total (root+branch&cut) =   74.44 sec. (10002.13 ticks)
Gap: 0.73%
Upper bound: 11801.2
Lower bound: 11715.2
End of CPLEX run. Time: 74.4679 seconds
